125 10
3
66 88 36 36 23 49 67 92 61 88 25 84 99 44 80 39 83 57 56 10 30 90 25 99 20 43 59 21 28 46 75 1 75 47 29 69 32 63 22 41 99 15 48 89 19 67 36 93 53 8 86 63 1 23 57 39 39 82 10 53 44 98 97 2 80 53 31 81 85 29 83 12 14 53 10 89 97 46 42 29 46 98 97 46 22 43 95 50 71 1 93 24 9 92 43 14 67 65 0 35 9 80 46 34 35 42 25 28 61 85 83 97 68 74 69 13 30 93 86 73 97 86 16 55 37
783 391 695 675 916 850 685 884 940 606
0 0 0 0 0 0 79 0 0 0 65 0 50 0 0 0 0 0 0 0 23 0 30 0 0 0 0 0 0 0 0 0 84 0 0 0 0 0 0 0 0 0 0 0 0 0 0 0 18 0 0 0 91 0 0 0 0 0 85 0 0 0 0 0 0 0 0 0 0 36 0 0 0 0 0 0 0 0 0 0 0 0 0 91 0 0 24 0 0 0 4 0 0 0 0 0 0 5 0 0 0 54 0 84 0 83 0 0 0 0 0 0 0 0 0 0 0 0 99 0 0 0 0 0 0
0 53 0 0 0 0 0 0 0 0 0 0 0 0 13 0 0 0 0 0 0 0 0 0 0 0 0 0 20 0 0 0 0 0 80 0 0 0 0 0 0 0 0 0 18 0 0 0 0 0 0 32 0 0 0 54 52 0 0 0 76 0 48 0 2 0 0 0 0 0 0 0 0 25 0 0 0 0 0 0 0 0 0 0 0 0 0 0 0 0 0 0 0 0 0 0 0 0 0 0 54 0 29 0 0 0 0 0 0 0 0 0 0 0 0 0 0 0 0 30 0 0 0 0 0
8 16 0 24 0 97 59 0 0 0 0 0 0 0 0 0 0 50 11 0 0 44 0 0 57 0 0 0 72 19 0 0 0 0 0 0 0 5 0 0 0 0 0 0 0 0 0 0 0 0 0 0 0 0 0 0 0 0 22 0 0 0 70 0 0 0 66 61 0 0 0 0 0 44 0 0 0 0 0 0 13 0 0 0 0 0 21 21 0 0 0 54 0 0 0 53 0 0 0 0 0 0 0 0 0 0 0 0 0 0 0 0 0 0 0 0 0 33 0 0 59 0 33 0 0
0 13 0 0 0 0 89 0 0 0 0 49 0 60 0 0 0 0 82 0 0 35 45 0 0 0 0 0 0 0 0 0 0 0 0 0 38 0 53 0 79 14 0 0 0 0 0 0 13 0 77 0 0 0 0 31 0 0 0 0 0 0 0 0 0 0 0 0 0 0 0 0 0 0 0 0 0 0 0 0 0 0 0 0 0 0 0 0 0 0 0 0 0 0 0 0 0 0 77 0 44 0 74 1 0 0 0 0 0 35 0 0 0 0 60 0 0 0 0 0 0 0 0 0 15
0 0 0 0 76 0 0 0 0 68 0 0 0 0 0 0 0 0 4 0 0 0 0 95 0 0 0 15 0 0 0 0 0 0 56 0 0 0 0 15 0 0 0 46 89 0 0 38 38 0 0 0 0 0 81 0 46 0 0 0 0 0 0 58 0 0 0 0 15 0 9 0 0 95 0 33 20 0 0 0 0 0 0 68 43 0 16 0 0 0 0 0 86 0 0 0 0 52 0 9 0 0 45 0 9 0 0 0 35 0 0 86 0 0 0 0 0 0 5 0 0 0 0 0 0
0 0 0 77 0 0 0 0 0 0 0 0 92 0 0 0 11 0 0 0 0 0 0 0 67 0 0 0 39 54 0 0 13 0 0 0 0 0 0 0 0 0 0 38 0 48 0 0 0 0 0 0 0 0 7 0 0 0 0 0 79 0 2 0 0 81 0 0 0 33 0 0 0 0 0 0 0 78 0 74 0 0 0 0 0 0 45 75 0 0 0 0 0 0 55 0 0 0 0 0 0 0 56 0 19 0 0 0 0 0 0 0 0 0 0 0 96 0 0 38 0 0 0 0 25
0 0 39 44 0 0 0 42 0 0 0 0 0 0 0 0 0 5 0 0 0 0 14 0 0 4 0 0 0 0 0 0 0 0 0 0 0 0 0 0 0 0 33 58 0 0 0 27 0 0 0 0 0 0 0 0 0 13 0 0 0 0 0 0 0 0 0 0 0 0 0 0 0 0 0 0 0 25 0 0 0 0 80 47 0 0 0 0 0 0 8 0 0 0 0 0 10 0 0 94 0 59 44 0 69 0 30 0 61 31 0 0 0 0 0 0 0 18 60 0 0 0 0 49 0
0 4 0 0 0 0 0 48 0 0 0 40 0 0 0 0 0 0 0 0 9 91 0 0 0 0 9 79 0 0 0 0 0 28 0 0 26 0 0 0 0 0 0 0 0 0 0 0 0 49 56 0 0 0 71 0 0 0 0 0 95 0 3 0 52 78 0 0 0 0 0 0 0 0 0 67 46 0 0 0 0 36 0 0 0 0 0 0 64 0 82 53 0 0 0 0 47 0 0 0 0 23 0 0 0 0 0 0 0 0 0 0 0 0 0 0 0 0 0 35 0 0 0 0 67
0 0 0 0 0 0 0 0 0 0 0 0 0 0 0 0 0 0 0 0 0 0 0 0 0 53 0 86 0 0 50 0 0 0 82 0 80 0 0 58 11 0 0 50 0 0 0 0 0 0 11 0 0 75 0 0 0 0 0 39 0 0 0 0 0 0 0 0 0 0 0 0 75 91 30 0 0 0 24 80 0 0 32 0 75 46 0 0 0 0 0 0 0 0 0 0 63 0 0 0 0 0 0 0 0 91 0 0 0 0 0 95 0 0 0 0 0 0 0 0 0 0 0 0 0
0 0 0 0 0 0 0 0 0 0 0 0 0 0 21 0 0 0 0 0 0 0 0 0 0 92 0 0 0 39 96 0 0 0 0 0 0 41 0 0 0 0 0 0 0 0 0 0 58 0 0 88 0 0 0 0 0 0 0 0 0 0 0 0 0 6 0 0 0 90 0 0 0 0 0 0 0 0 67 0 0 0 0 23 0 0 0 0 0 0 0 0 0 10 0 0 0 0 0 0 0 59 0 0 0 0 0 0 0 0 0 0 0 0 3 0 0 0 0 0 0 0 57 0 0
0 0 0 0 0 0 78 0 0 0 59 0 7 0 0 0 0 0 0 0 17 0 4 0 0 0 0 0 0 0 0 0 24 0 0 0 0 0 0 0 0 0 0 0 0 0 0 0 8 0 0 0 22 0 0 0 0 0 82 0 0 0 0 0 0 0 0 0 0 27 0 0 0 0 0 0 0 0 0 0 0 0 0 46 0 0 22 0 0 0 3 0 0 0 0 0 0 1 0 0 0 52 0 59 0 70 0 0 0 0 0 0 0 0 0 0 0 0 55 0 0 0 0 0 0
0 18 0 0 0 0 0 0 0 0 0 0 0 0 9 0 0 0 0 0 0 0 0 0 0 0 0 0 17 0 0 0 0 0 29 0 0 0 0 0 0 0 0 0 10 0 0 0 0 0 0 21 0 0 0 3 28 0 0 0 22 0 7 0 1 0 0 0 0 0 0 0 0 6 0 0 0 0 0 0 0 0 0 0 0 0 0 0 0 0 0 0 0 0 0 0 0 0 0 0 26 0 10 0 0 0 0 0 0 0 0 0 0 0 0 0 0 0 0 10 0 0 0 0 0
6 3 0 8 0 3 29 0 0 0 0 0 0 0 0 0 0 13 2 0 0 1 0 0 40 0 0 0 49 14 0 0 0 0 0 0 0 1 0 0 0 0 0 0 0 0 0 0 0 0 0 0 0 0 0 0 0 0 5 0 0 0 48 0 0 0 14 53 0 0 0 0 0 0 0 0 0 0 0 0 2 0 0 0 0 0 9 3 0 0 0 20 0 0 0 47 0 0 0 0 0 0 0 0 0 0 0 0 0 0 0 0 0 0 0 0 0 31 0 0 40 0 5 0 0
0 1 0 0 0 0 15 0 0 0 0 0 0 6 0 0 0 0 53 0 0 2 37 0 0 0 0 0 0 0 0 0 0 0 0 0 18 0 47 0 62 4 0 0 0 0 0 0 4 0 12 0 0 0 0 8 0 0 0 0 0 0 0 0 0 0 0 0 0 0 0 0 0 0 0 0 0 0 0 0 0 0 0 0 0 0 0 0 0 0 0 0 0 0 0 0 0 0 3 0 12 0 30 0 0 0 0 0 0 32 0 0 0 0 41 0 0 0 0 0 0 0 0 0 11
0 0 0 0 27 0 0 0 0 17 0 0 0 0 0 0 0 0 0 0 0 0 0 38 0 0 0 6 0 0 0 0 0 0 55 0 0 0 0 14 0 0 0 17 68 0 0 7 28 0 0 0 0 0 75 0 35 0 0 0 0 0 0 11 0 0 0 0 7 0 6 0 0 2 0 8 12 0 0 0 0 0 0 41 34 0 8 0 0 0 0 0 0 0 0 0 0 36 0 4 0 0 27 0 6 0 0 0 34 0 0 30 0 0 0 0 0 0 2 0 0 0 0 0 0
0 0 0 63 0 0 0 0 0 0 0 0 51 0 0 0 6 0 0 0 0 0 0 0 48 0 0 0 0 51 0 0 11 0 0 0 0 0 0 0 0 0 0 29 0 27 0 0 0 0 0 0 0 0 5 0 0 0 0 0 4 0 1 0 0 13 0 0 0 30 0 0 0 0 0 0 0 71 0 25 0 0 0 0 0 0 40 26 0 0 0 0 0 0 46 0 0 0 0 0 0 0 1 0 9 0 0 0 0 0 0 0 0 0 0 0 41 0 0 37 0 0 0 0 15
0 0 10 32 0 0 0 25 0 0 0 0 0 0 0 0 0 4 0 0 0 0 9 0 0 2 0 0 0 0 0 0 0 0 0 0 0 0 0 0 0 0 10 34 0 0 0 26 0 0 0 0 0 0 0 0 0 10 0 0 0 0 0 0 0 0 0 0 0 0 0 0 0 0 0 0 0 6 0 0 0 0 19 26 0 0 0 0 0 0 5 0 0 0 0 0 7 0 0 34 0 45 7 0 62 0 0 0 40 28 0 0 0 0 0 0 0 1 45 0 0 0 0 43 0
0 2 0 0 0 0 0 7 0 0 0 33 0 0 0 0 0 0 0 0 1 87 0 0 0 0 8 17 0 0 0 0 0 0 0 0 15 0 0 0 0 0 0 0 0 0 0 0 0 44 40 0 0 0 68 0 0 0 0 0 6 0 0 0 49 32 0 0 0 0 0 0 0 0 0 39 11 0 0 0 0 8 0 0 0 0 0 0 33 0 23 16 0 0 0 0 31 0 0 0 0 4 0 0 0 0 0 0 0 0 0 0 0 0 0 0 0 0 0 33 0 0 0 0 50
0 0 0 0 0 0 0 0 0 0 0 0 0 0 0 0 0 0 0 0 0 0 0 0 0 37 0 68 0 0 32 0 0 0 37 0 66 0 0 16 0 0 0 34 0 0 0 0 0 0 9 0 0 10 0 0 0 0 0 22 0 0 0 0 0 0 0 0 0 0 0 0 50 57 11 0 0 0 3 72 0 0 5 0 57 37 0 0 0 0 0 0 0 0 0 0 9 0 0 0 0 0 0 0 0 19 0 0 0 0 0 84 0 0 0 0 0 0 0 0 0 0 0 0 0
0 0 0 0 0 0 0 0 0 0 0 0 0 0 18 0 0 0 0 0 0 0 0 0 0 20 0 0 0 36 53 0 0 0 0 0 0 14 0 0 0 0 0 0 0 0 0 0 53 0 0 87 0 0 0 0 0 0 0 0 0 0 0 0 0 3 0 0 0 55 0 0 0 0 0 0 0 0 32 0 0 0 0 18 0 0 0 0 0 0 0 0 0 4 0 0 0 0 0 0 0 49 0 0 0 0 0 0 0 0 0 0 0 0 0 0 0 0 0 0 0 0 41 0 0
